
Gurobi 11.0.2 (win64) logging started Wed Aug 14 11:13:48 2024

Set parameter LogFile to value "D:\Documenti\Scuola\Laurea magistrale unibs\laurea-unibs-mkfsp\output\2024-08-14T08_52_45.517425\logs\instance03_bucket2.log"
Set parameter TimeLimit to value 500
Set parameter MIPGap to value 0
Gurobi Optimizer version 11.0.2 build v11.0.2rc0 (win64 - Windows 10.0 (19045.2))

CPU model: Intel(R) Core(TM) i5-4670 CPU @ 3.40GHz, instruction set [SSE2|AVX|AVX2]
Thread count: 4 physical cores, 4 logical processors, using up to 4 threads

Optimize a model with 1945 rows, 9724 columns and 104094 nonzeros
Model fingerprint: 0x285a75fc
Variable types: 0 continuous, 9724 integer (9647 binary)
Coefficient statistics:
  Matrix range     [1e+00, 8e+03]
  Objective range  [6e+02, 8e+03]
  Bounds range     [1e+00, 1e+00]
  RHS range        [1e+00, 4e+05]
Found heuristic solution: objective 353587.00000
Presolve time: 0.13s
Presolved: 1945 rows, 9724 columns, 104094 nonzeros
Variable types: 0 continuous, 9724 integer (9647 binary)
Found heuristic solution: objective 405999.00000

Root relaxation: objective 4.247150e+05, 1040 iterations, 0.01 seconds (0.01 work units)

    Nodes    |    Current Node    |     Objective Bounds      |     Work
 Expl Unexpl |  Obj  Depth IntInf | Incumbent    BestBd   Gap | It/Node Time

H    0     0                    424715.00000 424715.000  0.00%     -    0s
     0     0 424715.000    0  443 424715.000 424715.000  0.00%     -    0s

Explored 1 nodes (1040 simplex iterations) in 0.17 seconds (0.14 work units)
Thread count was 4 (of 4 available processors)

Solution count 3: 424715 405999 353587 

Optimal solution found (tolerance 0.00e+00)
Best objective 4.247150000000e+05, best bound 4.247150000000e+05, gap 0.0000%
